100
150
100
99
97
94
93
91
89
88
86
85
85
84
83
81
81
80
79
78
77
76
75
75
74
71
71
70
69
68
68
68
68
66
64
63
63
62
62
62
61
59
58
56
55
55
54
54
54
54
52
52
47
46
46
46
45
44
41
41
39
39
39
38
38
37
36
36
35
35
34
34
34
33
31
30
29
29
29
29
28
28
27
27
27
26
26
26
23
23
22
20
20
20
17
14
8
8
6
3
1
1
